NAME          COPTPROB
OBJSENSE
  MIN
ROWS
 N  __OBJ___
 L  C59     
 L  C66     
 L  C172    
COLUMNS
    MARKER    'MARKER'                 'INTORG'
    x122      __OBJ___  95
    x122      C66       -1
    x149      __OBJ___  125
    x149      C59       -1
    x189      __OBJ___  95
    x189      C172      -1
    x493      __OBJ___  112
    x493      C66       -1
    x493      C172      -1
    x706      __OBJ___  152
    x706      C59       -1
    x706      C172      -1
    x903      __OBJ___  169
    x903      C59       -1
    x903      C66       -1
    MARKER    'MARKER'                 'INTEND'
RHS
    RHS       __OBJ___  -9900
    RHS       C59       -1
    RHS       C66       -1
    RHS       C172      -1
BOUNDS
 UP BOUND     x122      1
 UP BOUND     x149      1
 UP BOUND     x189      1
 UP BOUND     x493      1
 UP BOUND     x706      1
 UP BOUND     x903      1
ENDATA
